Tried aggregator 2 times.
MIP Presolve eliminated 5 rows and 3 columns.
MIP Presolve modified 14 coefficients.
Aggregator did 14 substitutions.
Reduced MIP has 69 rows, 66 columns, and 167 nonzeros.
Reduced MIP has 37 binaries, 7 generals, 0 SOSs, and 4 indicators.
Presolve time = 0.00 sec. (0.14 ticks)
Found incumbent of value 7.000000 after 0.00 sec. (0.25 ticks)
Probing fixed 3 vars, tightened 12 bounds.
Probing time = 0.00 sec. (0.10 ticks)
Tried aggregator 3 times.
MIP Presolve eliminated 4 rows and 4 columns.
MIP Presolve modified 16 coefficients.
Aggregator did 25 substitutions.
Reduced MIP has 41 rows, 37 columns, and 118 nonzeros.
Reduced MIP has 27 binaries, 10 generals, 0 SOSs, and 3 indicators.
Presolve time = 0.00 sec. (0.17 ticks)
Probing time = 0.00 sec. (0.03 ticks)
Tried aggregator 1 time.
MIP Presolve eliminated 1 rows and 0 columns.
Reduced MIP has 40 rows, 37 columns, and 116 nonzeros.
Reduced MIP has 27 binaries, 10 generals, 0 SOSs, and 3 indicators.
Presolve time = 0.00 sec. (0.06 ticks)
Probing time = 0.00 sec. (0.03 ticks)
Clique table members: 24.
MIP emphasis: balance optimality and feasibility.
MIP search method: dynamic search.
Parallel mode: deterministic, using up to 4 threads.
Root relaxation solution time = 0.00 sec. (0.08 ticks)

        Nodes                                         Cuts/
   Node  Left     Objective  IInf  Best Integer    Best Bound    ItCnt     Gap

*     0+    0                            7.0000        4.0000       11   42.86%
      0     0        4.0000    14        7.0000        4.0000       11   42.86%
*     0+    0                            5.0000        4.0000       11   20.00%
*     0     0      integral     0        4.0000       Cuts: 7       15    0.00%
      0     0        cutoff              4.0000        4.0000       15    0.00%
Elapsed time = 0.01 sec. (1.40 ticks, tree = 0.00 MB, solutions = 3)

Cover cuts applied:  1
Implied bound cuts applied:  3
Zero-half cuts applied:  2
Gomory fractional cuts applied:  1

Root node processing (before b&c):
  Real time             =    0.01 sec. (1.41 ticks)
Parallel b&c, 4 threads:
  Real time             =    0.00 sec. (0.00 ticks)
  Sync time (average)   =    0.00 sec.
  Wait time (average)   =    0.00 sec.
                          ------------
Total (root+branch&cut) =    0.01 sec. (1.41 ticks)
